c Random generated cnf formula, satisfiable: false
p cnf 10 50
-6 -4 -8 0
-6 7 -10 0
6 10 7 0
-5 -4 -6 0
-1 6 4 0
2 9 10 0
10 -8 5 0
-4 -10 -3 0
-7 8 5 0
-9 -5 4 0
4 7 -5 0
1 8 -9 0
9 2 4 0
-9 -3 -7 0
-8 2 5 0
10 5 -9 0
2 4 9 0
-5 -7 10 0
-10 7 5 0
10 -5 8 0
-2 7 3 0
-4 -7 1 0
1 -5 10 0
-7 6 9 0
7 6 2 0
-7 -2 -4 0
-5 6 3 0
8 10 2 0
6 2 -3 0
-6 2 10 0
3 5 7 0
-6 7 8 0
7 -3 9 0
-1 10 -6 0
-5 -1 -10 0
7 8 4 0
9 5 3 0
3 6 4 0
-2 -5 -4 0
9 7 3 0
2 -7 4 0
7 1 -6 0
5 2 1 0
-10 -6 -7 0
-5 7 4 0
2 10 -6 0
5 10 7 0
-6 9 -1 0
8 -3 2 0
9 -10 8 0
